nNurses = 77;
nHours = 27;
minHours = 10;
maxHours = 14;
maxConsec = 8;
maxPresence = 16;
demand = [30, 29, 31, 35, 32, 32, 33, 37, 40, 35, 34, 38, 37, 33, 32, 35, 40, 35, 36, 38, 36, 32, 33, 38, 33, 38, 37];
